   Node |    u            v           fint-u       fint-v       S11          S22          S12          
----------------------------------------------------------------------------------------------------
     0  |    0.000e+00    0.000e+00   -2.495e+02   -7.460e+01    3.848e+03    6.734e+02    3.647e+02   
     1  |    7.054e-02    5.129e-02    1.000e+03   -4.192e-13    9.838e+03   -1.450e+03   -2.917e+03   
     2  |   -1.050e-02    2.415e-02   -2.882e-14   -4.470e-13   -3.364e+01   -3.283e+01    3.019e+01   
     3  |    0.000e+00    0.000e+00    1.066e+02   -2.835e+01   -1.608e+03   -2.614e+02    1.116e+02   
     4  |    4.355e-03    2.228e-03    0.000e+00    3.797e-14    3.764e+03    3.480e+02    1.727e+02   
     5  |    8.392e-03    3.531e-03   -1.705e-13    7.017e-14    3.725e+03    2.763e+01   -5.889e+01   
     6  |    1.258e-02    5.146e-03   -7.958e-13    5.063e-14    3.877e+03    3.515e+01   -1.339e+02   
     7  |    1.709e-02    7.215e-03   -6.253e-13   -2.593e-13    4.177e+03    5.530e+01   -2.302e+02   
     8  |    2.216e-02    9.888e-03    1.023e-12    6.040e-14    4.688e+03    1.113e+02   -4.085e+02   
     9  |    2.823e-02    1.338e-02    2.274e-13   -4.334e-13    5.553e+03    2.365e+02   -7.688e+02   
    10  |    3.632e-02    1.831e-02    9.095e-13   -4.974e-13    6.970e+03    5.664e+02   -1.549e+03   
    11  |    4.886e-02    2.662e-02    4.547e-13    5.684e-14    8.841e+03   -3.205e+02   -2.502e+03   
    12  |    2.990e-02    4.331e-02   -4.405e-13    6.253e-13    4.626e+03   -2.344e+03   -1.080e+03   
    13  |    1.798e-02    3.631e-02   -3.020e-13    3.411e-13   -2.909e+02   -3.010e+03    6.891e+02   
    14  |    1.048e-02    3.150e-02    2.167e-13    3.411e-13   -3.662e+01   -2.462e+03    5.450e+02   
    15  |    5.604e-03    2.833e-02    1.918e-13    1.762e-12   -5.559e+01   -1.829e+03    4.201e+02   
    16  |    1.921e-03    2.624e-02    1.812e-13   -3.268e-13   -3.225e+01   -1.246e+03    3.355e+02   
    17  |   -1.169e-03    2.498e-02    2.380e-13    6.466e-13   -3.237e+01   -7.496e+02    2.649e+02   
    18  |   -4.102e-03    2.435e-02    1.776e-15    2.025e-13   -4.029e+01   -3.621e+02    1.840e+02   
    19  |   -7.179e-03    2.416e-02    3.175e-13    9.504e-14   -3.996e+01   -1.160e+02    8.431e+01   
    20  |   -1.049e-02    2.072e-02   -9.637e-14   -1.683e-13   -1.155e+02   -3.516e+01    8.047e+01   
    21  |   -1.031e-02    1.707e-02    4.974e-14    3.766e-13   -3.417e+02   -2.422e+01    1.581e+02   
    22  |   -9.762e-03    1.330e-02    1.990e-13    2.220e-13   -6.495e+02   -1.025e+00    1.848e+02   
    23  |   -8.778e-03    9.709e-03    1.705e-13   -2.078e-13   -9.593e+02    1.386e+01    1.667e+02   
    24  |   -7.402e-03    6.551e-03   -9.948e-14   -1.137e-13   -1.216e+03    2.051e+01    1.247e+02   
    25  |   -5.735e-03    4.007e-03    7.105e-14    1.688e-14   -1.396e+03    1.958e+01    7.566e+01   
    26  |   -3.901e-03    2.158e-03    2.842e-14    1.887e-14   -1.501e+03    1.881e+01    3.373e+01   
    27  |   -1.997e-03    1.009e-03    0.000e+00   -1.132e-14   -1.572e+03   -1.204e+02    6.398e+01   
    28  |    0.000e+00    0.000e+00    1.298e+02    3.084e+00   -1.253e+03   -2.125e+02    5.598e+01   
    29  |    0.000e+00    0.000e+00    6.184e+01    1.369e+01   -5.983e+02   -9.089e+01   -3.710e+01   
    30  |    0.000e+00    0.000e+00   -2.201e+00    2.117e+01   -4.658e+00    6.439e+01   -1.001e+02   
    31  |    0.000e+00    0.000e+00   -6.753e+01    2.588e+01    5.978e+02    2.291e+02   -1.406e+02   
    32  |    0.000e+00    0.000e+00   -1.358e+02    2.711e+01    1.233e+03    3.875e+02   -1.513e+02   
    33  |    0.000e+00    0.000e+00   -2.071e+02    2.227e+01    1.905e+03    5.280e+02   -1.107e+02   
    34  |    0.000e+00    0.000e+00   -2.791e+02    7.177e+00    2.601e+03    6.312e+02    1.307e+01   
    35  |    0.000e+00    0.000e+00   -3.570e+02   -1.743e+01    3.399e+03    6.717e+02    2.326e+02   
    36  |   -7.148e-03    2.075e-02    4.086e-14    2.061e-13   -1.187e+02   -1.072e+02    1.603e+02   
    37  |   -4.175e-03    2.094e-02    2.238e-13   -4.459e-13   -1.064e+02   -3.004e+02    3.034e+02   
    38  |   -1.390e-03    2.139e-02    1.315e-13    6.595e-13   -8.090e+01   -5.745e+02    4.121e+02   
    39  |    1.528e-03    2.214e-02   -3.517e-13   -1.087e-12   -6.870e+01   -8.919e+02    4.893e+02   
    40  |    5.013e-03    2.319e-02   -1.563e-13   -2.071e-12   -6.774e+01   -1.201e+03    5.359e+02   
    41  |    9.745e-03    2.442e-02    9.592e-14   -7.283e-14   -2.366e+01   -1.407e+03    5.121e+02   
    42  |    1.677e-02    2.542e-02   -6.590e-13    4.694e-13    3.469e+02   -1.279e+03    1.426e+02   
    43  |    3.008e-02    2.475e-02   -2.871e-12    3.411e-13    4.756e+03   -7.050e+02   -1.345e+03   
    44  |   -6.943e-03    1.698e-02    5.004e-13   -2.842e-14   -3.173e+02   -6.271e+01    2.727e+02   
    45  |   -4.078e-03    1.698e-02   -7.638e-14    3.020e-13   -2.507e+02   -1.462e+02    4.648e+02   
    46  |   -1.400e-03    1.709e-02    4.619e-14   -8.100e-13   -1.716e+02   -2.241e+02    5.841e+02   
    47  |    1.438e-03    1.727e-02   -1.563e-13   -1.243e-12   -9.852e+01   -2.536e+02    6.229e+02   
    48  |    4.896e-03    1.739e-02    1.599e-13    5.578e-13    7.551e+00   -1.695e+02    5.400e+02   
    49  |    9.608e-03    1.727e-02   -2.665e-13    3.304e-13    2.959e+02    1.233e+02    2.118e+02   
    50  |    1.672e-02    1.662e-02   -5.258e-13   -3.073e-13    1.496e+03    6.577e+02   -6.224e+02   
    51  |    2.685e-02    1.641e-02    1.421e-13    9.948e-13    4.724e+03    7.732e+02   -1.379e+03   
    52  |   -6.485e-03    1.307e-02   -4.050e-13    6.111e-13   -5.637e+02    6.398e-02    3.056e+02   
    53  |   -3.759e-03    1.289e-02    3.864e-13   -5.187e-13   -3.930e+02    1.391e+01    4.899e+02   
    54  |   -1.203e-03    1.272e-02    7.816e-14    6.892e-13   -2.221e+02    6.468e+01    5.644e+02   
    55  |    1.546e-03    1.251e-02   -1.208e-13    5.187e-13   -2.807e+01    1.796e+02    5.166e+02   
    56  |    4.908e-03    1.217e-02    1.918e-13    2.700e-13    2.696e+02    3.796e+02    2.962e+02   
    57  |    9.405e-03    1.167e-02   -1.421e-13   -2.398e-13    8.971e+02    6.406e+02   -1.696e+02   
    58  |    1.543e-02    1.129e-02    3.837e-13    7.390e-13    2.240e+03    7.473e+02   -7.817e+02   
    59  |    2.246e-02    1.171e-02   -1.734e-12   -2.274e-13    4.349e+03    4.763e+02   -9.294e+02   
    60  |   -5.768e-03    9.354e-03    2.132e-14   -1.315e-13   -8.005e+02    4.089e+01    2.733e+02   
    61  |   -3.260e-03    9.046e-03   -1.590e-13    3.553e-14   -5.011e+02    1.139e+02    4.239e+02   
    62  |   -8.983e-04    8.728e-03    1.084e-13   -1.137e-13   -2.121e+02    2.246e+02    4.519e+02   
    63  |    1.646e-03    8.364e-03    2.380e-13    2.132e-13    1.261e+02    3.693e+02    3.490e+02   
    64  |    4.710e-03    7.960e-03    7.105e-15    6.146e-13    6.097e+02    5.247e+02    9.492e+01   
    65  |    8.579e-03    7.629e-03    4.263e-13    7.887e-13    1.385e+03    6.126e+02   -2.845e+02   
    66  |    1.327e-02    7.654e-03    1.080e-12   -1.723e-13    2.559e+03    5.214e+02   -6.159e+02   
    67  |    1.819e-02    8.389e-03    7.674e-13   -4.032e-13    3.970e+03    2.645e+02   -5.718e+02   
    68  |   -4.828e-03    6.099e-03    2.345e-13   -3.197e-14   -9.933e+02    5.800e+01    2.067e+02   
    69  |   -2.647e-03    5.722e-03   -5.684e-14   -1.990e-13   -5.730e+02    1.522e+02    3.171e+02   
    70  |   -5.905e-04    5.358e-03    1.243e-14   -2.061e-13   -1.667e+02    2.735e+02    3.193e+02   
    71  |    1.601e-03    5.005e-03    5.684e-14   -3.197e-14    2.976e+02    3.967e+02    2.115e+02   
    72  |    4.160e-03    4.717e-03    1.492e-13   -2.096e-13    8.953e+02    4.819e+02    4.468e+00   
    73  |    7.223e-03    4.634e-03    5.116e-13   -2.744e-13    1.691e+03    4.731e+02   -2.465e+02   
    74  |    1.071e-02    4.955e-03   -6.537e-13   -2.416e-13    2.676e+03    3.413e+02   -4.154e+02   
    75  |    1.421e-02    5.834e-03    2.274e-13    3.375e-14    3.692e+03    1.501e+02   -3.444e+02   
    76  |   -3.715e-03    3.491e-03    2.132e-13   -9.237e-14   -1.130e+03    5.711e+01    1.319e+02   
    77  |   -1.970e-03    3.086e-03   -7.105e-15    1.066e-14   -6.184e+02    1.466e+02    2.062e+02   
    78  |   -3.336e-04    2.738e-03   -4.263e-14   -1.137e-13   -1.163e+02    2.554e+02    1.997e+02   
    79  |    1.375e-03    2.459e-03   -1.847e-13    6.750e-14    4.361e+02    3.555e+02    1.156e+02   
    80  |    3.308e-03    2.309e-03    1.137e-13   -2.842e-14    1.088e+03    4.067e+02   -2.064e+01   
    81  |    5.531e-03    2.407e-03    4.974e-13    7.105e-14    1.865e+03    3.716e+02   -1.621e+02   
    82  |    7.985e-03    2.896e-03    4.263e-13    8.882e-15    2.719e+03    2.453e+02   -2.440e+02   
    83  |    1.045e-02    3.837e-03    5.684e-14    3.277e-13    3.516e+03    9.857e+01   -1.976e+02   
    84  |   -2.484e-03    1.620e-03   -5.684e-14    1.510e-14   -1.214e+03    3.473e+01    7.115e+01   
    85  |   -1.261e-03    1.215e-03    4.263e-14   -6.395e-14   -6.423e+02    9.681e+01    1.111e+02   
    86  |   -1.448e-04    9.274e-04   -2.132e-14   -5.684e-14   -7.174e+01    1.997e+02    9.134e+01   
    87  |    1.003e-03    7.342e-04    6.395e-14    7.105e-15    5.272e+02    3.025e+02    3.305e+01   
    88  |    2.265e-03    6.761e-04    5.684e-14    5.329e-14    1.193e+03    3.662e+02   -3.816e+01   
    89  |    3.673e-03    8.428e-04   -1.563e-13   -1.403e-13    1.938e+03    3.610e+02   -8.956e+01   
    90  |    5.196e-03    1.347e-03   -5.684e-14   -3.908e-14    2.730e+03    2.729e+02   -9.489e+01   
    91  |    6.810e-03    2.291e-03   -2.274e-13   -1.810e-13    3.428e+03    1.177e+02   -7.145e+01   
    92  |   -1.172e-03    4.365e-04    4.263e-14    5.329e-15   -1.248e+03   -9.794e+01    5.154e+01   
    93  |   -5.828e-04    1.547e-04   -3.553e-15   -1.288e-14   -6.236e+02   -1.617e+01    1.590e+01   
    94  |   -2.938e-05   -1.574e-05    1.621e-14   -6.217e-15   -2.765e+01    1.144e+02   -3.110e+01   
    95  |    5.327e-04   -1.200e-04   -7.105e-14    2.309e-14    5.794e+02    2.531e+02   -7.514e+01   
    96  |    1.137e-03   -1.401e-04   -1.421e-14   -1.066e-14    1.229e+03    3.733e+02   -1.016e+02   
    97  |    1.791e-03   -2.274e-05    4.263e-14   -7.105e-15    1.929e+03    4.553e+02   -8.652e+01   
    98  |    2.487e-03    3.061e-04   -8.527e-14   -7.105e-15    2.665e+03    4.788e+02   -5.169e+00   
    99  |    3.194e-03    9.590e-04    5.684e-14   -4.263e-14    3.402e+03    4.105e+02    1.138e+02   
 
